Version identifier: 22.1.0.0 | 2022-03-09 | 1a383f8ce
CPXPARAM_Threads                                 1
CPXPARAM_MIP_Strategy_VariableSelect             3
CPXPARAM_TimeLimit                               599.99997345700001
1 of 1 MIP starts provided solutions.
MIP start 'm1' defined initial solution with objective 18.0000.
Tried aggregator 2 times.
MIP Presolve eliminated 69 rows and 1 columns.
MIP Presolve added 36 rows and 9 columns.
MIP Presolve modified 55 coefficients.
Aggregator did 9 substitutions.
Reduced MIP has 3284 rows, 7800 columns, and 179890 nonzeros.
Reduced MIP has 7800 binaries, 0 generals, 0 SOSs, and 0 indicators.
Presolve time = 0.20 sec. (287.75 ticks)
Probing time = 0.03 sec. (31.13 ticks)
Tried aggregator 1 time.
Detecting symmetries...
MIP Presolve modified 13 coefficients.
Reduced MIP has 3284 rows, 7800 columns, and 180264 nonzeros.
Reduced MIP has 7800 binaries, 0 generals, 0 SOSs, and 0 indicators.
Presolve time = 0.15 sec. (210.06 ticks)
Probing time = 0.03 sec. (31.15 ticks)
Clique table members: 898.
MIP emphasis: balance optimality and feasibility.
MIP search method: dynamic search.
Parallel mode: none, using 1 thread.
Root relaxation solution time = 0.49 sec. (556.11 ticks)

        Nodes                                         Cuts/
   Node  Left     Objective  IInf  Best Integer    Best Bound    ItCnt     Gap

*     0+    0                           18.0000    45150.0000              --- 
      0     0      300.0000   354       18.0000      300.0000     2031     --- 
*     0+    0                          300.0000      300.0000             0.00%
      0     0        cutoff            300.0000      300.0000     2031    0.00%
Elapsed time = 2.04 sec. (2171.10 ticks, tree = 0.01 MB, solutions = 2)

Root node processing (before b&c):
  Real time             =    2.04 sec. (2171.40 ticks)
Sequential b&c:
  Real time             =    0.00 sec. (0.00 ticks)
                          ------------
Total (root+branch&cut) =    2.04 sec. (2171.40 ticks)
Primal:	300
Dual:	300
Status:	Optimal
Time:	2.06
Sequence:
	24
	2
	12
	14
	20
	24
	16
	14
	4
	0
	21
	23
	16
	4
	11
	21
	21
	0
	10
	11
	20
	23
	23
	0
	2
	16
	20
	12
	0
	0
	4
	12
	13
	10
	12
	23
	4
	23
	12
	15
	24
	2
	12
	4
	2
	13
	23
	15
	23
	13
	2
	4
	19
	19
	23
	4
	0
	16
	14
	23
	23
	15
	10
	0
	15
	7
	23
	23
	2
	13
	24
	7
	23
	23
	20
	2
	13
	7
	4
	2
	2
	7
	23
	7
	2
	23
	13
	23
	0
	23
	2
	2
	12
	0
	12
	16
	8
	0
	8
	16
	6
	14
	8
	22
	12
	5
	12
	12
	19
	18
	12
	2
	0
	12
	0
	14
	0
	16
	4
	17
	17
	2
	4
	0
	2
	4
	14
	8
	8
	2
	4
	14
	0
	0
	0
	2
	23
	4
	23
	8
	6
	15
	23
	2
	24
	13
	6
	20
	6
	8
	0
	20
	21
	6
	6
	20
	10
	0
	22
	0
	22
	0
	13
	17
	23
	20
	2
	2
	20
	13
	0
	0
	10
	4
	23
	22
	20
	2
	10
	3
	20
	23
	2
	13
	6
	1
	19
	0
	14
	20
	21
	12
	13
	2
	4
	2
	17
	0
	13
	17
	4
	12
	9
	19
	2
	0
	23
	10
	3
	0
	2
	2
	0
	8
	10
	10
	0
	2
	0
	4
	14
	6
	0
	23
	0
	10
	14
	10
	0
	17
	15
	10
	6
	4
	3
	19
	16
	4
	22
	2
	4
	17
	6
	20
	2
	0
	2
	4
	11
	0
	20
	12
	8
	4
	14
	0
	4
	2
	5
	24
	16
	0
	4
	23
	0
	12
	4
	10
	13
	4
	2
	0
	14
	12
	0
	4
	14
	23
	15
	6
	12
	20
	8
	2
	12
	4
	2
	8
	0
	4
	2
	13
	15
	16
	16
	20
	9
	23
	14
	8
